NAME: ParkingMeters
TYPE: TSP
COMMENT: driving time (seconds)
DIMENSION:  5
EDGE_WEIGHT_TYPE: EXPLICIT
EDGE_WEIGHT_FORMAT: FULL_MATRIX
EDGE_WEIGHT_SECTION
0 310 192 227 143
157 0 386 491 482
159 246 0 149 333
249 214 375 0 0
116 127 127 0 0
